
Welcome to IBM(R) ILOG(R) CPLEX(R) Interactive Optimizer 22.1.1.0
  with Simplex, Mixed Integer & Barrier Optimizers
5725-A06 5725-A29 5724-Y48 5724-Y49 5724-Y54 5724-Y55 5655-Y21
Copyright IBM Corp. 1988, 2022.  All Rights Reserved.

Type 'help' for a list of available commands.
Type 'help' followed by a command name for more
information on commands.

CPLEX> Selected objective sense:  MINIMIZE
Selected objective  name:  00000000
Selected RHS        name:  RHS1
Selected bound      name:  BOUND
Problem 'ee.mps' read.
Read time = 0.03 sec. (3.17 ticks)
CPLEX> New value for time limit in seconds: 7200
CPLEX> New value for parallel optimization mode: -1
CPLEX> New value for default parallel thread count: 40
CPLEX> New value for mixed integer optimality gap tolerance: 1e-13
CPLEX> Version identifier: 22.1.1.0 | 2022-11-28 | 9160aff4d
CPXPARAM_Threads                                 40
CPXPARAM_Parallel                                -1
CPXPARAM_TimeLimit                               7200
CPXPARAM_MIP_Tolerances_MIPGap                   1e-13
Found incumbent of value 0.000000 after 0.00 sec. (0.31 ticks)
Tried aggregator 2 times.
MIP Presolve eliminated 182 rows and 2745 columns.
MIP Presolve modified 6090 coefficients.
Aggregator did 713 substitutions.
Reduced MIP has 3636 rows, 7840 columns, and 28953 nonzeros.
Reduced MIP has 7840 binaries, 0 generals, 0 SOSs, and 0 indicators.
Presolve time = 0.07 sec. (69.14 ticks)
Probing time = 0.03 sec. (5.34 ticks)
Tried aggregator 1 time.
Detecting symmetries...
Reduced MIP has 3636 rows, 7840 columns, and 28953 nonzeros.
Reduced MIP has 7840 binaries, 0 generals, 0 SOSs, and 0 indicators.
Presolve time = 0.03 sec. (22.10 ticks)
Probing time = 0.02 sec. (5.12 ticks)
Clique table members: 18788.
MIP emphasis: balance optimality and feasibility.
MIP search method: dynamic search.
Parallel mode: opportunistic, using up to 40 threads.
Root relaxation solution time = 0.16 sec. (158.20 ticks)

        Nodes                                         Cuts/
   Node  Left     Objective  IInf  Best Integer    Best Bound    ItCnt     Gap

*     0+    0                            0.0000  -1.54000e+13              --- 
*     0+    0                      -3.60000e+12  -1.54000e+13           327.78%
*     0+    0                      -4.80000e+12  -1.54000e+13           220.83%
*     0+    0                      -6.00000e+12  -1.54000e+13           156.67%
*     0+    0                      -8.40000e+12  -1.54000e+13            83.33%
      0     0  -1.53900e+13    68  -8.40000e+12  -1.53900e+13     2488   83.21%
*     0+    0                      -1.53900e+13  -1.53900e+13             0.00%
      0     0  -1.53900e+13   220  -1.53900e+13      Cuts: 58     3411    0.00%
*     0+    0                      -1.53900e+13  -1.53900e+13             0.00%
      0     0  -1.53900e+13   218  -1.53900e+13      Cuts: 97     3915    0.00%
      0     0  -1.53900e+13   254  -1.53900e+13      Cuts: 88     4207    0.00%
*     0+    0                      -1.53900e+13  -1.53900e+13             0.00%
      0    21        cutoff        -1.53900e+13  -1.53900e+13     8446    0.00%
Elapsed time = 2.74 sec. (1495.71 ticks, tree = 0.02 MB, solutions = 8)
*    19+   30                      -1.53900e+13  -1.53900e+13             0.00%
     76    10  -1.53900e+13   184  -1.53900e+13  -1.53900e+13     5131    0.00%
    206    69  -1.53900e+13   135  -1.53900e+13  -1.53900e+13    22770    0.00%
    385   147  -1.53900e+13    98  -1.53900e+13  -1.53900e+13    66077    0.00%
    708   200        cutoff        -1.53900e+13  -1.53900e+13    94005    0.00%
   1128   340        cutoff        -1.53900e+13  -1.53900e+13   189170    0.00%
   1520   283  -1.53900e+13    94  -1.53900e+13  -1.53900e+13   154231    0.00%
   2001   348  -1.53900e+13   229  -1.53900e+13  -1.53900e+13   191939    0.00%
   2407   403  -1.53900e+13    57  -1.53900e+13  -1.53900e+13   219024    0.00%
   2738   430  -1.53900e+13   127  -1.53900e+13  -1.53900e+13   262770    0.00%
   3901   724        cutoff        -1.53900e+13  -1.53900e+13   529522    0.00%
Elapsed time = 8.36 sec. (4605.49 ticks, tree = 3.73 MB, solutions = 15)
   4935   893  -1.53900e+13    76  -1.53900e+13  -1.53900e+13   713458    0.00%
   5959   911  -1.53900e+13   199  -1.53900e+13  -1.53900e+13   735422    0.00%
   7310  1809  -1.53900e+13    65  -1.53900e+13  -1.53900e+13  1551539    0.00%
   8530  1422        cutoff        -1.53900e+13  -1.53900e+13  1152822    0.00%
   9564  1828  -1.53900e+13    44  -1.53900e+13  -1.53900e+13  1559974    0.00%
  10669  2343        cutoff        -1.53900e+13  -1.53900e+13  1970589    0.00%
  11788  1889  -1.53900e+13    89  -1.53900e+13  -1.53900e+13  1645685    0.00%
  12615  2053  -1.53900e+13    65  -1.53900e+13  -1.53900e+13  1765926    0.00%
  13388  2154        cutoff        -1.53900e+13  -1.53900e+13  1835428    0.00%
  13988  2345        cutoff        -1.53900e+13  -1.53900e+13  1977547    0.00%
Elapsed time = 20.72 sec. (14155.52 ticks, tree = 13.04 MB, solutions = 15)
  14262  2463  -1.53900e+13   147  -1.53900e+13  -1.53900e+13  2077131    0.00%

Performing restart 1

Repeating presolve.
Tried aggregator 2 times.
MIP Presolve eliminated 39 rows and 117 columns.
MIP Presolve modified 1908 coefficients.
Aggregator did 26 substitutions.
Reduced MIP has 3495 rows, 7697 columns, and 27851 nonzeros.
Reduced MIP has 7697 binaries, 0 generals, 0 SOSs, and 0 indicators.
Presolve time = 0.06 sec. (53.53 ticks)
Tried aggregator 2 times.
MIP Presolve eliminated 29 rows and 48 columns.
MIP Presolve modified 20 coefficients.
Aggregator did 9 substitutions.
Reduced MIP has 3457 rows, 7632 columns, and 27633 nonzeros.
Reduced MIP has 7632 binaries, 0 generals, 0 SOSs, and 0 indicators.
Presolve time = 0.05 sec. (51.57 ticks)
Represolve time = 0.22 sec. (156.53 ticks)
  14290     0  -1.53900e+13   359  -1.53900e+13      Cuts: 26  2628226    0.00%
  14290     0  -1.53900e+13   273  -1.53900e+13      Cuts: 22  2628419    0.00%
  14290     0  -1.53900e+13   322  -1.53900e+13      Cuts: 36  2628778    0.00%
  14290     0  -1.53900e+13   317  -1.53900e+13      Cuts: 15  2628916    0.00%
  14290     0  -1.53900e+13   240  -1.53900e+13      Cuts: 26  2629141    0.00%
  14290     0  -1.53900e+13   265  -1.53900e+13      Cuts: 26  2629336    0.00%
  14290     0  -1.53900e+13   223  -1.53900e+13      Cuts: 10  2629396    0.00%
  14290     0  -1.53900e+13   307  -1.53900e+13      Cuts: 27  2629534    0.00%
  14290     0  -1.53900e+13   318  -1.53900e+13      Cuts: 19  2629600    0.00%
  14290     0  -1.53900e+13   320  -1.53900e+13      Cuts: 31  2629688    0.00%
  14290     4        cutoff        -1.53900e+13  -1.53900e+13  2645651    0.00%
  14376     3        cutoff        -1.53900e+13  -1.53900e+13  2633695    0.00%
  14386     4  -1.53900e+13   234  -1.53900e+13  -1.53900e+13  2643501    0.00%

GUB cover cuts applied:  4
Clique cuts applied:  12
Cover cuts applied:  197
Flow cuts applied:  6
Mixed integer rounding cuts applied:  23
Zero-half cuts applied:  32
Lift and project cuts applied:  4
Gomory fractional cuts applied:  23

Root node processing (before b&c):
  Real time             =    1.66 sec. (1483.92 ticks)
Parallel b&c, 40 threads:
  Real time             =   29.62 sec. (20014.45 ticks)
  Sync time (average)   =    5.67 sec.
  Wait time (average)   =    0.19 sec.
                          ------------
Total (root+branch&cut) =   31.29 sec. (21498.37 ticks)

Solution pool: 15 solutions saved.

MIP - Integer optimal solution:  Objective = -1.5389999289e+13
Solution time =   31.43 sec.  Iterations = 2647451  Nodes = 14393
Deterministic time = 21498.40 ticks  (683.94 ticks/sec)

CPLEX> Solution 'p16' written to file 'ee.sol'.
CPLEX> 